35
1 0 1
2 0 2
2 1 5
3 0 3
3 1 3
3 2 2
4 0 1
4 1 1
4 2 3
4 3 1
5 0 1
5 1 3
5 2 3
5 3 5
5 4 2
6 0 3
6 1 2
6 2 5
6 3 4
6 4 1
6 5 3
7 0 5
7 1 1
7 2 3
7 3 2
7 4 2
7 5 1
7 6 4
8 0 5
8 1 4
8 2 3
8 3 2
8 4 2
8 5 4
8 6 1
8 7 4
9 0 2
9 1 3
9 2 3
9 3 3
9 4 3
9 5 1
9 6 1
9 7 3
9 8 3
10 0 3
10 1 3
10 2 5
10 3 2
10 4 3
10 5 2
10 6 3
10 7 5
10 8 3
10 9 3
11 0 4
11 1 5
11 2 3
11 3 2
11 4 2
11 5 2
11 6 2
11 7 4
11 8 1
11 9 3
11 10 4
12 0 2
12 1 5
12 2 4
12 3 4
12 4 2
12 5 4
12 6 5
12 7 2
12 8 4
12 9 1
12 10 4
12 11 2
13 0 1
13 1 4
13 2 4
13 3 3
13 4 1
13 5 1
13 6 1
13 7 1
13 8 3
13 9 1
13 10 3
13 11 5
13 12 5
14 0 5
14 1 2
14 2 3
14 3 3
14 4 5
14 5 4
14 6 4
14 7 1
14 8 2
14 9 5
14 10 5
14 11 4
14 12 4
14 13 4
15 0 3
15 1 1
15 2 3
15 3 4
15 4 2
15 5 5
15 6 4
15 7 4
15 8 2
15 9 2
15 10 1
15 11 4
15 12 1
15 13 3
15 14 1
16 0 2
16 1 2
16 2 4
16 3 1
16 4 4
16 5 4
16 6 5
16 7 1
16 8 3
16 9 2
16 10 1
16 11 3
16 12 5
16 13 1
16 14 1
16 15 4
17 0 5
17 1 4
17 2 1
17 3 4
17 4 1
17 5 4
17 6 3
17 7 3
17 8 3
17 9 3
17 10 2
17 11 5
17 12 4
17 13 3
17 14 1
17 15 5
17 16 3
18 0 3
18 1 1
18 2 5
18 3 4
18 4 1
18 5 2
18 6 5
18 7 1
18 8 4
18 9 4
18 10 2
18 11 5
18 12 3
18 13 2
18 14 4
18 15 5
18 16 4
18 17 4
19 0 2
19 1 3
19 2 5
19 3 4
19 4 4
19 5 4
19 6 2
19 7 2
19 8 1
19 9 1
19 10 2
19 11 4
19 12 4
19 13 5
19 14 3
19 15 3
19 16 1
19 17 2
19 18 1
20 0 5
20 1 4
20 2 5
20 3 4
20 4 4
20 5 2
20 6 2
20 7 5
20 8 4
20 9 5
20 10 5
20 11 1
20 12 4
20 13 2
20 14 2
20 15 1
20 16 2
20 17 4
20 18 3
20 19 4
21 0 3
21 1 5
21 2 3
21 3 2
21 4 1
21 5 2
21 6 2
21 7 3
21 8 5
21 9 5
21 10 1
21 11 3
21 12 4
21 13 4
21 14 4
21 15 2
21 16 4
21 17 3
21 18 2
21 19 2
21 20 2
22 0 5
22 1 1
22 2 3
22 3 1
22 4 4
22 5 4
22 6 2
22 7 2
22 8 3
22 9 1
22 10 4
22 11 1
22 12 4
22 13 3
22 14 5
22 15 5
22 16 1
22 17 1
22 18 1
22 19 5
22 20 2
22 21 2
23 0 3
23 1 1
23 2 2
23 3 3
23 4 3
23 5 4
23 6 2
23 7 4
23 8 4
23 9 3
23 10 3
23 11 4
23 12 1
23 13 5
23 14 2
23 15 4
23 16 3
23 17 1
23 18 1
23 19 4
23 20 5
23 21 2
23 22 4
24 0 1
24 1 2
24 2 5
24 3 3
24 4 5
24 5 4
24 6 2
24 7 2
24 8 5
24 9 5
24 10 4
24 11 2
24 12 1
24 13 3
24 14 5
24 15 4
24 16 4
24 17 4
24 18 5
24 19 4
24 20 3
24 21 5
24 22 5
24 23 1
25 0 3
25 1 4
25 2 2
25 3 2
25 4 4
25 5 3
25 6 2
25 7 2
25 8 3
25 9 4
25 10 4
25 11 2
25 12 4
25 13 5
25 14 1
25 15 1
25 16 4
25 17 2
25 18 1
25 19 3
25 20 2
25 21 3
25 22 4
25 23 5
25 24 5
26 0 2
26 1 2
26 2 2
26 3 3
26 4 5
26 5 2
26 6 2
26 7 4
26 8 4
26 9 4
26 10 3
26 11 1
26 12 2
26 13 5
26 14 3
26 15 2
26 16 4
26 17 4
26 18 1
26 19 3
26 20 3
26 21 2
26 22 1
26 23 1
26 24 4
26 25 2
27 0 2
27 1 2
27 2 4
27 3 3
27 4 5
27 5 5
27 6 3
27 7 5
27 8 2
27 9 2
27 10 3
27 11 5
27 12 5
27 13 1
27 14 4
27 15 3
27 16 5
27 17 4
27 18 1
27 19 2
27 20 4
27 21 5
27 22 4
27 23 1
27 24 2
27 25 2
27 26 1
28 0 3
28 1 1
28 2 2
28 3 2
28 4 2
28 5 2
28 6 5
28 7 1
28 8 2
28 9 4
28 10 3
28 11 4
28 12 2
28 13 3
28 14 4
28 15 3
28 16 1
28 17 5
28 18 2
28 19 5
28 20 4
28 21 5
28 22 5
28 23 2
28 24 5
28 25 4
28 26 3
28 27 2
29 0 2
29 1 1
29 2 4
29 3 5
29 4 2
29 5 5
29 6 5
29 7 3
29 8 1
29 9 1
29 10 5
29 11 5
29 12 4
29 13 1
29 14 3
29 15 3
29 16 4
29 17 1
29 18 1
29 19 3
29 20 2
29 21 3
29 22 4
29 23 5
29 24 2
29 25 5
29 26 1
29 27 1
29 28 1
30 0 4
30 1 1
30 2 5
30 3 5
30 4 3
30 5 4
30 6 1
30 7 3
30 8 5
30 9 1
30 10 1
30 11 1
30 12 5
30 13 2
30 14 1
30 15 5
30 16 1
30 17 4
30 18 4
30 19 3
30 20 4
30 21 5
30 22 1
30 23 4
30 24 3
30 25 1
30 26 2
30 27 4
30 28 3
30 29 2
31 0 4
31 1 5
31 2 3
31 3 5
31 4 3
31 5 4
31 6 3
31 7 5
31 8 3
31 9 5
31 10 5
31 11 5
31 12 1
31 13 3
31 14 4
31 15 1
31 16 5
31 17 5
31 18 1
31 19 2
31 20 1
31 21 5
31 22 2
31 23 2
31 24 2
31 25 1
31 26 2
31 27 3
31 28 3
31 29 4
31 30 5
32 0 5
32 1 4
32 2 2
32 3 5
32 4 4
32 5 2
32 6 4
32 7 3
32 8 4
32 9 2
32 10 5
32 11 4
32 12 3
32 13 1
32 14 1
32 15 1
32 16 4
32 17 5
32 18 1
32 19 1
32 20 2
32 21 5
32 22 5
32 23 1
32 24 2
32 25 5
32 26 2
32 27 3
32 28 5
32 29 2
32 30 4
32 31 2
33 0 3
33 1 1
33 2 2
33 3 2
33 4 1
33 5 1
33 6 4
33 7 2
33 8 5
33 9 1
33 10 4
33 11 4
33 12 5
33 13 4
33 14 1
33 15 1
33 16 1
33 17 2
33 18 4
33 19 1
33 20 4
33 21 5
33 22 2
33 23 2
33 24 3
33 25 4
33 26 2
33 27 2
33 28 1
33 29 5
33 30 5
33 31 5
33 32 2
34 0 4
34 1 4
34 2 3
34 3 1
34 4 5
34 5 2
34 6 5
34 7 1
34 8 4
34 9 4
34 10 3
34 11 4
34 12 2
34 13 2
34 14 5
34 15 1
34 16 3
34 17 1
34 18 3
34 19 3
34 20 5
34 21 2
34 22 1
34 23 5
34 24 5
34 25 3
34 26 3
34 27 4
34 28 1
34 29 3
34 30 4
34 31 4
34 32 1
34 33 4
